c SAT problem
p wcnf 96 422
1 75 76 0
1 -75 -3150 0
1 90 3060 0
1 90 3135 0
1 -105 3105 0
1 -105 -106 0
1 -105 3150 0
1 105 -3090 0
1 105 -3165 0
1 105 -3135 0
1 3120 -75 0
1 3120 150 0
1 3120 90 0
1 3135 -3136 0
1 3135 -135 0
1 -3135 105 0
1 3135 -181 0
1 -3150 -75 0
1 -3150 -151 0
1 -3165 -196 0
1 3165 105 0
1 -3165 90 0
1 120 135 0
1 -120 -3090 0
1 -120 -3060 0
1 -135 -3105 0
1 135 -3120 0
1 150 3030 0
1 -150 3000 0
1 -165 3105 0
1 165 -3015 0
1 -165 3090 0
1 165 -3060 0
1 -165 3030 0
1 165 -3000 0
1 3060 225 0
1 3060 -195 0
1 -3060 -3075 0
1 3060 135 0
1 3060 120 0
1 3060 255 0
1 3075 195 0
1 -3075 -135 0
1 3075 -180 0
1 3075 3060 0
1 -3075 90 0
1 -3090 -3105 0
1 -3090 -165 0
1 -3090 -135 0
1 -3090 105 0
1 3090 -181 0
1 -3090 -120 0
1 -3090 -90 0
1 3105 226 0
1 -3105 -3106 0
1 3105 -165 0
1 3105 -240 0
1 3105 3090 0
1 3105 255 0
1 180 3000 0
1 195 -196 0
1 -195 3015 0
1 -195 3000 0
1 210 211 0
1 210 3030 0
1 225 3075 0
1 225 3045 0
1 225 -210 0
1 -225 -3000 0
1 3000 225 0
1 3000 195 0
1 -3000 300 0
1 3000 -180 0
1 3000 -3001 0
1 3015 -225 0
1 3015 -300 0
1 -3015 -150 0
1 3015 315 0
1 -3030 225 0
1 -3030 195 0
1 -3030 165 0
1 3030 -3045 0
1 3030 -270 0
1 -3030 240 0
1 3030 -210 0
1 -3030 -180 0
1 3030 150 0
1 3030 3031 0
1 3045 -225 0
1 -3045 -195 0
1 -3045 -3046 0
1 -3045 -210 0
1 3045 -180 0
1 -3045 150 0
1 -61 60 0
1 76 -3330 0
1 -76 3300 0
1 -76 -75 0
1 -76 3315 0
1 -76 -61 0
1 91 -90 0
1 106 3300 0
1 106 3270 0
1 -106 -3240 0
1 106 105 0
1 106 3285 0
1 106 91 0
1 3300 121 0
1 3300 91 0
1 3315 -106 0
1 -3315 -151 0
1 3315 -121 0
1 -3315 -61 0
1 3330 3331 0
1 -3345 -3330 0
1 -121 -3300 0
1 -121 -3240 0
1 -121 -3150 0
1 121 -3255 0
1 -121 120 0
1 121 -3165 0
1 -136 -135 0
1 -136 3240 0
1 -136 -3150 0
1 -136 -121 0
1 -151 -3300 0
1 151 3270 0
1 -151 3210 0
1 151 -3285 0
1 -151 -150 0
1 -151 -3255 0
1 166 -3300 0
1 -166 165 0
1 166 -3240 0
1 -166 3225 0
1 166 -3195 0
1 3240 3255 0
1 -3240 -136 0
1 3240 241 0
1 3240 151 0
1 -3240 -121 0
1 -3255 226 0
1 -3255 -196 0
1 3255 136 0
1 3255 -106 0
1 3255 211 0
1 3255 3256 0
1 3255 91 0
1 -3270 -256 0
1 3270 -166 0
1 3270 -136 0
1 -3270 106 0
1 -3270 -3285 0
1 3270 -91 0
1 -3285 -256 0
1 3285 -166 0
1 3285 136 0
1 3285 -106 0
1 3285 241 0
1 3285 151 0
1 181 3150 0
1 181 -180 0
1 -181 3225 0
1 -181 -3195 0
1 181 -3165 0
1 -196 -195 0
1 -196 3180 0
1 196 3150 0
1 196 -3120 0
1 -196 3255 0
1 196 -3165 0
1 -211 3136 0
1 211 -3121 0
1 -211 3090 0
1 -211 -3166 0
1 -226 225 0
1 -226 3151 0
1 -226 -3090 0
1 226 -211 0
1 226 3255 0
1 -3180 -226 0
1 -3180 196 0
1 3180 270 0
1 3180 -3195 0
1 3195 -166 0
1 3195 -3180 0
1 3195 -270 0
1 -3195 -240 0
1 -3195 -3196 0
1 3195 316 0
1 -3195 285 0
1 3210 226 0
1 3210 166 0
1 -3210 -3211 0
1 -3210 -271 0
1 -3210 -241 0
1 3210 151 0
1 3210 -3225 0
1 3225 -196 0
1 -3225 166 0
1 3225 -3210 0
1 -3225 271 0
1 3225 241 0
1 3225 -151 0
1 -3225 3226 0
1 3225 -316 0
1 3225 -286 0
1 240 3105 0
1 -240 3045 0
1 240 -3030 0
1 240 3166 0
1 -240 255 0
1 -255 -256 0
1 255 -3105 0
1 -255 -240 0
1 -255 3121 0
1 255 3090 0
1 255 3030 0
1 255 3195 0
1 -270 -3106 0
1 -270 3076 0
1 -270 -271 0
1 -270 -3151 0
1 270 3166 0
1 -285 3091 0
1 285 3166 0
1 -3121 361 0
1 -3121 330 0
1 3121 -240 0
1 -3121 -345 0
1 3121 -315 0
1 -3121 -285 0
1 -3121 -255 0
1 3136 -226 0
1 3136 330 0
1 3136 -3135 0
1 3136 -376 0
1 -3136 -315 0
1 3151 -331 0
1 -3151 3150 0
1 -3151 240 0
1 3151 -211 0
1 -3151 -376 0
1 3151 -285 0
1 3166 -226 0
1 -3166 -331 0
1 -3166 -376 0
1 3166 346 0
1 3166 316 0
1 3166 -285 0
1 -3166 255 0
1 300 -3136 0
1 300 3121 0
1 -300 3091 0
1 300 3061 0
1 300 -3030 0
1 -315 3076 0
1 -315 3015 0
1 -315 3121 0
1 330 3046 0
1 -330 -345 0
1 330 -3016 0
1 330 -331 0
1 -330 3001 0
1 -345 3106 0
1 -345 330 0
1 -345 3121 0
1 345 346 0
1 3061 360 0
1 -3061 -330 0
1 -3061 300 0
1 3076 3075 0
1 -3076 300 0
1 3076 3061 0
1 3076 -375 0
1 -3076 345 0
1 -3091 -270 0
1 3091 3090 0
1 -3091 -345 0
1 3106 3105 0
1 -3106 -361 0
1 -3106 3091 0
1 -3106 406 0
1 -3106 376 0
1 -3106 345 0
1 3106 315 0
1 -3106 285 0
1 -360 3016 0
1 -360 -3061 0
1 360 -375 0
1 375 3046 0
1 375 3016 0
1 375 -3061 0
1 -375 376 0
1 390 -3076 0
1 390 3031 0
1 -390 3001 0
1 405 -390 0
1 -405 -3046 0
1 405 406 0
1 -3001 -360 0
1 3001 -3016 0
1 3001 375 0
1 -3001 3000 0
1 3016 -360 0
1 3016 330 0
1 3016 375 0
1 -3016 345 0
1 3031 -390 0
1 3031 360 0
1 3031 405 0
1 -3046 405 0
1 3046 345 0
1 -241 256 0
1 -241 -3301 0
1 -241 3346 0
1 -241 -3316 0
1 -241 -3255 0
1 256 3301 0
1 256 -3210 0
1 256 -3316 0
1 -256 3225 0
1 -256 255 0
1 271 3331 0
1 271 -270 0
1 -271 3316 0
1 -271 -286 0
1 286 -3301 0
1 -286 -3241 0
1 -286 3210 0
1 -286 -3286 0
1 286 3256 0
1 -286 -3225 0
1 3301 256 0
1 3301 3300 0
1 -3301 271 0
1 -3301 241 0
1 -3301 346 0
1 3316 256 0
1 -3316 -346 0
1 3316 -316 0
1 -3331 256 0
1 -3346 256 0
1 -3346 3331 0
1 3346 -271 0
1 3346 -3345 0
1 -301 3271 0
1 301 3241 0
1 -301 300 0
1 301 -3225 0
1 301 -3195 0
1 -316 3301 0
1 -316 -3241 0
1 -316 3210 0
1 -316 -3151 0
1 316 -3316 0
1 -316 -3225 0
1 -316 -315 0
1 -331 -330 0
1 331 3211 0
1 331 -3151 0
1 331 -3286 0
1 346 -3271 0
1 346 -3211 0
1 -346 -3181 0
1 -346 3316 0
1 -346 -3286 0
1 346 3256 0
1 -346 345 0
1 3241 -3256 0
1 3241 391 0
1 3241 -3240 0
1 -3241 361 0
1 -3241 -301 0
1 -3241 -376 0
1 3241 346 0
1 -3256 -361 0
1 -3256 3241 0
1 3256 -3255 0
1 -3256 316 0
1 -3271 -3270 0
1 -3271 -331 0
1 3271 -301 0
1 -3271 -346 0
1 -3271 -316 0
1 3286 331 0
1 3286 301 0
1 3286 -3285 0
1 3286 -286 0
1 -361 3136 0
1 -361 -360 0
1 -361 3181 0
1 -361 -3121 0
1 361 -376 0
1 361 3226 0
1 376 -3241 0
1 -376 -3181 0
1 376 -3121 0
1 -376 -3091 0
1 -376 -375 0
1 376 3226 0
1 376 -3196 0
1 -391 3106 0
1 391 390 0
1 -391 3091 0
1 406 3106 0
1 406 3211 0
1 -406 3091 0
1 406 -3256 0
1 -406 3226 0
1 406 -3196 0
1 -3181 -361 0
1 3181 331 0
1 -3181 3180 0
1 3181 -376 0
1 -3196 331 0
1 -3196 3181 0
1 -3196 -376 0
1 3211 3226 0
1 -3211 -3210 0
1 3211 -331 0
1 -3226 391 0
